NAME: p01_110_tsplib0_NORMALIZED
BEST_KNOWN: 0
COMMENT: 0
DIMENSION: 51
CAPACITY: 100
EDGE_WEIGHT_FORMAT: FUNCTION
EDGE_WEIGHT_TYPE: EXACT_2D
NODE_COORD_SECTION
1 0 0
2 7 12
3 19 9
4 22 24
5 -10 -14
6 10 -10
7 -9 7
8 -13 23
9 1 22
10 22 -7
11 21 -19
12 12 1
13 1 -8
14 -25 -15
15 -18 2
16 6 -24
17 22 1
18 -3 -17
19 -13 -7
20 -17 -27
21 27 18
22 32 2
23 12 17
24 -14 17
25 -22 12
26 -23 -2
27 -3 28
28 0 8
29 13 27
30 28 8
31 28 -13
32 7 29
33 8 6
34 16 -30
35 31 -7
36 32 23
37 33 29
38 2 -18
39 15 -5
40 29 -25
41 -25 -34
42 -20 -23
43 -9 -30
44 -25 24
45 0 -25
46 9 -30
47 2 -1
48 -5 -8
49 -5 15
50 18 -12
51 26 -3
DEMAND_SECTION
1 0
2 8
3 3
4 2
5 5
6 8
7 8
8 5
9 1
10 2
11 0
12 8
13 3
14 5
15 5
16 6
17 3
18 1
19 5
20 8
21 5
22 1
23 6
24 6
25 5
26 7
27 6
28 0
29 7
30 1
31 1
32 8
33 8
34 8
35 2
36 8
37 5
38 7
39 5
40 5
41 8
42 1
43 1
44 6
45 6
46 8
47 3
48 5
49 4
50 8
51 6
DEPOT_SECTION
1
-1
EOF